c Reduced graph for GEOM60b_0 generated by Cyril Grelier
p edge 58 356
e 1 2
e 1 3
e 1 4
e 1 6
e 1 7
e 1 8
e 1 9
e 1 10
e 1 11
e 1 12
e 1 15
e 1 16
e 1 20
e 1 22
e 1 23
e 1 25
e 1 26
e 1 29
e 1 38
e 1 39
e 2 6
e 2 7
e 2 8
e 2 10
e 2 11
e 2 12
e 2 16
e 2 17
e 2 18
e 2 19
e 2 20
e 2 21
e 2 22
e 2 24
e 2 32
e 2 37
e 3 4
e 3 6
e 3 8
e 3 9
e 3 12
e 3 15
e 3 16
e 3 23
e 3 25
e 3 26
e 3 28
e 3 29
e 3 31
e 3 33
e 3 38
e 3 39
e 4 9
e 4 12
e 4 15
e 4 23
e 4 25
e 4 26
e 4 28
e 4 29
e 4 31
e 4 33
e 4 38
e 4 39
e 4 42
e 4 51
e 4 52
e 5 6
e 5 7
e 5 8
e 5 13
e 5 14
e 5 16
e 5 21
e 5 27
e 5 30
e 5 32
e 5 36
e 5 40
e 5 41
e 5 43
e 5 46
e 5 48
e 5 49
e 6 7
e 6 8
e 6 10
e 6 11
e 6 12
e 6 13
e 6 15
e 6 16
e 6 17
e 6 18
e 6 19
e 6 20
e 6 22
e 7 8
e 7 10
e 7 11
e 7 12
e 7 13
e 7 14
e 7 16
e 7 17
e 7 19
e 7 21
e 7 24
e 7 30
e 7 32
e 8 9
e 8 11
e 8 12
e 8 13
e 8 14
e 8 16
e 8 26
e 8 27
e 8 29
e 8 30
e 9 12
e 9 15
e 9 23
e 9 25
e 9 26
e 9 28
e 9 29
e 9 31
e 9 33
e 9 42
e 9 51
e 9 52
e 10 11
e 10 16
e 10 17
e 10 18
e 10 19
e 10 20
e 10 22
e 10 34
e 10 35
e 10 37
e 10 45
e 10 47
e 11 12
e 11 16
e 11 17
e 11 18
e 11 19
e 11 20
e 11 21
e 11 22
e 11 24
e 11 37
e 12 13
e 12 15
e 12 16
e 12 23
e 12 25
e 12 26
e 12 29
e 13 14
e 13 16
e 13 26
e 13 27
e 13 29
e 13 30
e 13 36
e 13 43
e 13 48
e 13 49
e 13 53
e 14 16
e 14 21
e 14 27
e 14 30
e 14 36
e 14 40
e 14 41
e 14 43
e 14 46
e 14 48
e 14 49
e 14 53
e 15 23
e 15 25
e 15 26
e 15 28
e 15 31
e 15 33
e 15 38
e 15 39
e 15 42
e 16 19
e 16 21
e 16 30
e 17 18
e 17 20
e 17 22
e 17 34
e 17 35
e 17 37
e 17 44
e 17 45
e 17 47
e 17 55
e 18 20
e 18 22
e 18 34
e 18 35
e 18 37
e 18 44
e 18 45
e 18 47
e 18 55
e 19 21
e 19 24
e 19 32
e 19 37
e 19 40
e 19 41
e 19 50
e 19 56
e 20 22
e 20 34
e 20 35
e 20 38
e 20 44
e 20 45
e 20 47
e 21 24
e 21 32
e 21 40
e 21 41
e 21 46
e 21 50
e 21 54
e 22 34
e 22 35
e 22 38
e 22 44
e 22 45
e 22 47
e 23 26
e 23 28
e 23 29
e 23 33
e 23 42
e 23 51
e 23 52
e 23 53
e 24 32
e 24 37
e 24 40
e 24 41
e 24 50
e 24 54
e 24 56
e 24 57
e 25 31
e 25 33
e 25 38
e 25 39
e 25 42
e 25 44
e 25 51
e 26 27
e 26 28
e 26 29
e 26 53
e 27 29
e 27 30
e 27 36
e 27 43
e 27 48
e 27 49
e 27 53
e 28 29
e 28 31
e 28 33
e 28 42
e 28 51
e 28 52
e 29 53
e 30 36
e 30 43
e 30 48
e 30 49
e 30 53
e 31 33
e 31 38
e 31 39
e 31 42
e 31 51
e 31 52
e 32 40
e 32 41
e 32 46
e 32 50
e 32 54
e 32 56
e 33 39
e 33 42
e 33 51
e 33 52
e 34 35
e 34 37
e 34 44
e 34 45
e 34 47
e 34 55
e 35 38
e 35 39
e 35 44
e 35 45
e 35 55
e 36 40
e 36 41
e 36 43
e 36 46
e 36 48
e 36 49
e 37 47
e 37 50
e 37 58
e 38 39
e 38 44
e 39 42
e 39 44
e 40 41
e 40 46
e 40 50
e 40 54
e 41 43
e 41 46
e 41 54
e 42 51
e 42 52
e 43 46
e 43 48
e 43 49
e 44 45
e 45 47
e 45 55
e 46 48
e 46 54
e 47 55
e 47 58
e 48 49
e 49 53
e 50 54
e 50 56
e 50 57
e 51 52
e 56 57
e 57 58
